35
2 1 3
3 2 8
4 0 7
4 1 8
4 2 10
4 3 2
5 1 3
5 2 10
5 3 8
6 2 3
6 5 1
7 0 6
7 2 1
7 4 9
7 5 7
8 1 7
8 3 9
8 4 10
9 0 8
9 3 3
9 4 1
10 0 10
10 2 8
10 4 1
10 6 6
10 9 8
11 0 8
11 1 2
11 2 8
11 4 4
11 6 9
11 8 4
11 9 7
12 1 5
12 4 3
12 5 9
12 6 3
12 7 3
12 9 6
12 10 2
13 0 1
13 1 4
13 2 8
13 4 3
13 6 1
13 7 6
13 8 8
13 12 4
14 0 10
14 5 6
14 7 4
14 10 6
14 11 5
14 12 10
14 13 7
15 0 2
15 1 2
15 4 3
15 5 8
15 6 2
15 8 10
15 9 10
15 13 2
16 2 7
16 5 7
16 7 7
16 8 3
16 10 10
16 11 4
16 13 1
17 0 4
17 3 1
17 5 6
17 9 10
17 11 9
17 13 9
17 14 5
18 1 8
18 2 1
18 5 9
18 7 4
18 10 7
18 12 3
18 14 4
18 17 10
19 2 1
19 3 1
19 4 9
19 5 2
19 7 2
19 8 10
19 9 4
19 14 2
19 15 4
19 16 10
19 17 3
19 18 2
20 0 3
20 1 6
20 5 10
20 6 8
20 9 10
20 11 2
20 12 6
20 14 5
20 15 8
21 0 2
21 1 4
21 2 3
21 3 1
21 4 3
21 7 4
21 9 5
21 10 7
21 11 1
21 14 2
21 15 8
21 17 10
21 18 1
21 20 6
22 2 1
22 6 8
22 7 5
22 8 1
22 17 6
22 18 9
22 21 6
23 0 7
23 2 6
23 3 5
23 4 5
23 5 9
23 6 3
23 7 1
23 9 7
23 12 5
23 13 7
23 16 1
23 17 3
23 18 4
23 20 2
23 22 2
24 2 9
24 3 3
24 8 8
24 13 6
24 15 5
24 17 6
24 19 7
24 21 10
24 22 9
24 23 8
25 0 8
25 2 5
25 3 6
25 5 10
25 10 10
25 11 4
25 12 1
25 13 6
25 14 6
25 15 1
25 17 3
25 21 7
25 22 4
25 23 9
25 24 6
26 0 5
26 4 1
26 5 3
26 6 6
26 7 2
26 8 8
26 9 7
26 10 5
26 14 6
26 15 3
26 18 8
26 20 2
26 21 6
26 22 4
26 23 6
27 4 5
27 5 8
27 7 8
27 13 10
27 15 6
27 16 5
27 18 2
27 22 8
27 23 5
27 26 1
28 0 3
28 5 7
28 7 9
28 8 4
28 9 1
28 15 9
28 16 10
28 17 1
28 20 9
28 21 1
28 25 5
28 26 5
28 27 9
29 0 3
29 2 1
29 5 10
29 6 3
29 7 6
29 10 8
29 11 9
29 12 4
29 14 4
29 15 10
29 17 10
29 18 5
29 19 3
29 22 5
29 23 4
29 24 10
29 26 9
29 27 8
29 28 7
30 1 4
30 2 7
30 4 8
30 5 3
30 8 9
30 10 9
30 12 10
30 15 2
30 17 10
30 18 9
30 21 8
30 22 10
30 23 6
30 24 4
30 28 4
30 29 9
31 2 9
31 3 4
31 5 6
31 8 9
31 10 9
31 11 7
31 12 10
31 15 7
31 16 5
31 17 6
31 20 6
31 21 7
31 22 5
31 23 2
31 24 4
31 25 1
31 29 6
31 30 3
32 0 2
32 2 10
32 4 5
32 6 9
32 8 5
32 9 2
32 10 6
32 12 1
32 13 7
32 14 4
32 15 1
32 16 8
32 17 1
32 24 2
32 26 6
32 28 10
32 29 10
32 31 1
33 4 8
33 6 8
33 8 9
33 9 3
33 13 1
33 15 2
33 18 6
33 19 9
33 20 6
33 23 6
33 25 3
33 28 1
34 1 2
34 2 2
34 3 8
34 5 3
34 9 2
34 10 7
34 13 10
34 15 1
34 19 5
34 22 7
34 23 3
34 24 2
34 26 3
34 27 5
34 29 8
34 30 1
34 32 4
